\ Model MTZ_MODEL
\ LP format - for model browsing. Use MPS format to capture full model detail.
Minimize
  p[0,1] + p[0,2] + p[0,3] + p[0,4] + p[0,5] + p[1,0] + p[1,2] + p[1,3]
   + p[1,4] + p[1,5] + p[2,0] + p[2,1] + p[2,3] + p[2,4] + p[2,5] + p[3,0]
   + p[3,1] + p[3,2] + p[3,4] + p[3,5] + p[4,0] + p[4,1] + p[4,2] + p[4,3]
   + p[4,5] + p[5,0] + p[5,1] + p[5,2] + p[5,3] + p[5,4] + dc[0] + dc[1]
   + dc[2] + dc[3] + dc[4] + dc[5]
Subject To
 p2: p[0,1] - 33.46588651381338 z[0,1] >= 0
 p3: p[0,1] - 74.1489025017422 z[0,1] - dcc[0,1] >= -74.1489025017422
 R2: dcc[0,1] <= 74.1489025017422
 R3: x[0,1,0] - x[1,0,0] + dif[0,1,0] >= 0
 R4: - x[0,1,0] + x[1,0,0] + dif[0,1,0] >= 0
 R5: x[0,1,1] - x[1,0,1] + dif[0,1,1] >= 0
 R6: - x[0,1,1] + x[1,0,1] + dif[0,1,1] >= 0
 p2: p[0,2] - 36.42394157142174 z[0,2] >= 0
 p3: p[0,2] - 80.88421388877356 z[0,2] - dcc[0,2] >= -80.88421388877356
 R9: dcc[0,2] <= 80.88421388877356
 R10: x[0,1,0] - x[2,0,0] + dif[0,2,0] >= 0
 R11: - x[0,1,0] + x[2,0,0] + dif[0,2,0] >= 0
 R12: x[0,1,1] - x[2,0,1] + dif[0,2,1] >= 0
 R13: - x[0,1,1] + x[2,0,1] + dif[0,2,1] >= 0
 p2: p[0,3] + 7.491569828880261 z[0,3] >= 0
 p3: p[0,3] - 33.72368016746402 z[0,3] - dcc[0,3] >= -33.72368016746402
 R16: dcc[0,3] <= 33.72368016746402
 R17: x[0,1,0] - x[3,0,0] + dif[0,3,0] >= 0
 R18: - x[0,1,0] + x[3,0,0] + dif[0,3,0] >= 0
 R19: x[0,1,1] - x[3,0,1] + dif[0,3,1] >= 0
 R20: - x[0,1,1] + x[3,0,1] + dif[0,3,1] >= 0
 p2: p[0,4] - 38.70961549373341 z[0,4] >= 0
 p3: p[0,4] - 86.43639568163961 z[0,4] - dcc[0,4] >= -86.43639568163961
 R23: dcc[0,4] <= 86.43639568163961
 R24: x[0,1,0] - x[4,0,0] + dif[0,4,0] >= 0
 R25: - x[0,1,0] + x[4,0,0] + dif[0,4,0] >= 0
 R26: x[0,1,1] - x[4,0,1] + dif[0,4,1] >= 0
 R27: - x[0,1,1] + x[4,0,1] + dif[0,4,1] >= 0
 p2: p[0,5] - 50.42356371748715 z[0,5] >= 0
 p3: p[0,5] - 93.19169320809775 z[0,5] - dcc[0,5] >= -93.19169320809775
 R30: dcc[0,5] <= 93.19169320809775
 R31: x[0,1,0] - x[5,0,0] + dif[0,5,0] >= 0
 R32: - x[0,1,0] + x[5,0,0] + dif[0,5,0] >= 0
 R33: x[0,1,1] - x[5,0,1] + dif[0,5,1] >= 0
 R34: - x[0,1,1] + x[5,0,1] + dif[0,5,1] >= 0
 p2: p[1,0] - 33.46588651381338 z[1,0] >= 0
 p3: p[1,0] - 74.1489025017422 z[1,0] - dcc[1,0] >= -74.1489025017422
 R37: dcc[1,0] <= 74.1489025017422
 R38: - x[0,0,0] + x[1,1,0] + dif[1,0,0] >= 0
 R39: x[0,0,0] - x[1,1,0] + dif[1,0,0] >= 0
 R40: - x[0,0,1] + x[1,1,1] + dif[1,0,1] >= 0
 R41: x[0,0,1] - x[1,1,1] + dif[1,0,1] >= 0
 p2: p[1,2] + 13.98784152762471 z[1,2] >= 0
 p3: p[1,2] - 30.29429755927283 z[1,2] - dcc[1,2] >= -30.29429755927283
 R44: dcc[1,2] <= 30.29429755927283
 R45: x[1,1,0] - x[2,0,0] + dif[1,2,0] >= 0
 R46: - x[1,1,0] + x[2,0,0] + dif[1,2,0] >= 0
 R47: x[1,1,1] - x[2,0,1] + dif[1,2,1] >= 0
 R48: - x[1,1,1] + x[2,0,1] + dif[1,2,1] >= 0
 p2: p[1,3] - 34.2975914193831 z[1,3] >= 0
 p3: p[1,3] - 75.3347081852731 z[1,3] - dcc[1,3] >= -75.3347081852731
 R51: dcc[1,3] <= 75.3347081852731
 R52: x[1,1,0] - x[3,0,0] + dif[1,3,0] >= 0
 R53: - x[1,1,0] + x[3,0,0] + dif[1,3,0] >= 0
 R54: x[1,1,1] - x[3,0,1] + dif[1,3,1] >= 0
 R55: - x[1,1,1] + x[3,0,1] + dif[1,3,1] >= 0
 p2: p[1,4] - 14.129587870709 z[1,4] >= 0
 p3: p[1,4] - 61.67823482816091 z[1,4] - dcc[1,4] >= -61.67823482816091
 R58: dcc[1,4] <= 61.67823482816091
 R59: x[1,1,0] - x[4,0,0] + dif[1,4,0] >= 0
 R60: - x[1,1,0] + x[4,0,0] + dif[1,4,0] >= 0
 R61: x[1,1,1] - x[4,0,1] + dif[1,4,1] >= 0
 R62: - x[1,1,1] + x[4,0,1] + dif[1,4,1] >= 0
 p2: p[1,5] - 6.41973183458876 z[1,5] >= 0
 p3: p[1,5] - 49.00972809474508 z[1,5] - dcc[1,5] >= -49.00972809474508
 R65: dcc[1,5] <= 49.00972809474508
 R66: x[1,1,0] - x[5,0,0] + dif[1,5,0] >= 0
 R67: - x[1,1,0] + x[5,0,0] + dif[1,5,0] >= 0
 R68: x[1,1,1] - x[5,0,1] + dif[1,5,1] >= 0
 R69: - x[1,1,1] + x[5,0,1] + dif[1,5,1] >= 0
 p2: p[2,0] - 36.42394157142174 z[2,0] >= 0
 p3: p[2,0] - 80.88421388877357 z[2,0] - dcc[2,0] >= -80.88421388877357
 R72: dcc[2,0] <= 80.88421388877357
 R73: - x[0,0,0] + x[2,1,0] + dif[2,0,0] >= 0
 R74: x[0,0,0] - x[2,1,0] + dif[2,0,0] >= 0
 R75: - x[0,0,1] + x[2,1,1] + dif[2,0,1] >= 0
 R76: x[0,0,1] - x[2,1,1] + dif[2,0,1] >= 0
 p2: p[2,1] + 13.98784152762471 z[2,1] >= 0
 p3: p[2,1] - 30.29429755927283 z[2,1] - dcc[2,1] >= -30.29429755927283
 R79: dcc[2,1] <= 30.29429755927283
 R80: - x[1,0,0] + x[2,1,0] + dif[2,1,0] >= 0
 R81: x[1,0,0] - x[2,1,0] + dif[2,1,0] >= 0
 R82: - x[1,0,1] + x[2,1,1] + dif[2,1,1] >= 0
 R83: x[1,0,1] - x[2,1,1] + dif[2,1,1] >= 0
 p2: p[2,3] - 38.61572355248236 z[2,3] >= 0
 p3: p[2,3] - 83.43009664779537 z[2,3] - dcc[2,3] >= -83.43009664779537
 R86: dcc[2,3] <= 83.43009664779537
 R87: x[2,1,0] - x[3,0,0] + dif[2,3,0] >= 0
 R88: - x[2,1,0] + x[3,0,0] + dif[2,3,0] >= 0
 R89: x[2,1,1] - x[3,0,1] + dif[2,3,1] >= 0
 R90: - x[2,1,1] + x[3,0,1] + dif[2,3,1] >= 0
 p2: p[2,4] - 19.64639966235508 z[2,4] >= 0
 p3: p[2,4] - 70.97230294923 z[2,4] - dcc[2,4] >= -70.97230294923
 R93: dcc[2,4] <= 70.97230294923
 R94: x[2,1,0] - x[4,0,0] + dif[2,4,0] >= 0
 R95: - x[2,1,0] + x[4,0,0] + dif[2,4,0] >= 0
 R96: x[2,1,1] - x[4,0,1] + dif[2,4,1] >= 0
 R97: - x[2,1,1] + x[4,0,1] + dif[2,4,1] >= 0
 p2: p[2,5] - 9.051262938758825 z[2,5] >= 0
 p3: p[2,5] - 55.41851552833815 z[2,5] - dcc[2,5] >= -55.41851552833815
 R100: dcc[2,5] <= 55.41851552833815
 R101: x[2,1,0] - x[5,0,0] + dif[2,5,0] >= 0
 R102: - x[2,1,0] + x[5,0,0] + dif[2,5,0] >= 0
 R103: x[2,1,1] - x[5,0,1] + dif[2,5,1] >= 0
 R104: - x[2,1,1] + x[5,0,1] + dif[2,5,1] >= 0
 p2: p[3,0] + 7.491569828880261 z[3,0] >= 0
 p3: p[3,0] - 33.72368016746402 z[3,0] - dcc[3,0] >= -33.72368016746402
 R107: dcc[3,0] <= 33.72368016746402
 R108: - x[0,0,0] + x[3,1,0] + dif[3,0,0] >= 0
 R109: x[0,0,0] - x[3,1,0] + dif[3,0,0] >= 0
 R110: - x[0,0,1] + x[3,1,1] + dif[3,0,1] >= 0
 R111: x[0,0,1] - x[3,1,1] + dif[3,0,1] >= 0
 p2: p[3,1] - 34.2975914193831 z[3,1] >= 0
 p3: p[3,1] - 75.3347081852731 z[3,1] - dcc[3,1] >= -75.3347081852731
 R114: dcc[3,1] <= 75.3347081852731
 R115: - x[1,0,0] + x[3,1,0] + dif[3,1,0] >= 0
 R116: x[1,0,0] - x[3,1,0] + dif[3,1,0] >= 0
 R117: - x[1,0,1] + x[3,1,1] + dif[3,1,1] >= 0
 R118: x[1,0,1] - x[3,1,1] + dif[3,1,1] >= 0
 p2: p[3,2] - 38.61572355248236 z[3,2] >= 0
 p3: p[3,2] - 83.43009664779535 z[3,2] - dcc[3,2] >= -83.43009664779535
 R121: dcc[3,2] <= 83.43009664779535
 R122: - x[2,0,0] + x[3,1,0] + dif[3,2,0] >= 0
 R123: x[2,0,0] - x[3,1,0] + dif[3,2,0] >= 0
 R124: - x[2,0,1] + x[3,1,1] + dif[3,2,1] >= 0
 R125: x[2,0,1] - x[3,1,1] + dif[3,2,1] >= 0
 p2: p[3,4] - 31.10768959095694 z[3,4] >= 0
 p3: p[3,4] - 79.18857055682432 z[3,4] - dcc[3,4] >= -79.18857055682432
 R128: dcc[3,4] <= 79.18857055682432
 R129: x[3,1,0] - x[4,0,0] + dif[3,4,0] >= 0
 R130: - x[3,1,0] + x[4,0,0] + dif[3,4,0] >= 0
 R131: x[3,1,1] - x[4,0,1] + dif[3,4,1] >= 0
 R132: - x[3,1,1] + x[4,0,1] + dif[3,4,1] >= 0
 p2: p[3,5] - 46.41721479342504 z[3,5] >= 0
 p3: p[3,5] - 89.53944506199682 z[3,5] - dcc[3,5] >= -89.53944506199682
 R135: dcc[3,5] <= 89.53944506199682
 R136: x[3,1,0] - x[5,0,0] + dif[3,5,0] >= 0
 R137: - x[3,1,0] + x[5,0,0] + dif[3,5,0] >= 0
 R138: x[3,1,1] - x[5,0,1] + dif[3,5,1] >= 0
 R139: - x[3,1,1] + x[5,0,1] + dif[3,5,1] >= 0
 p2: p[4,0] - 38.70961549373341 z[4,0] >= 0
 p3: p[4,0] - 86.43639568163961 z[4,0] - dcc[4,0] >= -86.43639568163961
 R142: dcc[4,0] <= 86.43639568163961
 R143: - x[0,0,0] + x[4,1,0] + dif[4,0,0] >= 0
 R144: x[0,0,0] - x[4,1,0] + dif[4,0,0] >= 0
 R145: - x[0,0,1] + x[4,1,1] + dif[4,0,1] >= 0
 R146: x[0,0,1] - x[4,1,1] + dif[4,0,1] >= 0
 p2: p[4,1] - 14.129587870709 z[4,1] >= 0
 p3: p[4,1] - 61.67823482816092 z[4,1] - dcc[4,1] >= -61.67823482816092
 R149: dcc[4,1] <= 61.67823482816092
 R150: - x[1,0,0] + x[4,1,0] + dif[4,1,0] >= 0
 R151: x[1,0,0] - x[4,1,0] + dif[4,1,0] >= 0
 R152: - x[1,0,1] + x[4,1,1] + dif[4,1,1] >= 0
 R153: x[1,0,1] - x[4,1,1] + dif[4,1,1] >= 0
 p2: p[4,2] - 19.64639966235508 z[4,2] >= 0
 p3: p[4,2] - 70.97230294923 z[4,2] - dcc[4,2] >= -70.97230294923
 R156: dcc[4,2] <= 70.97230294923
 R157: - x[2,0,0] + x[4,1,0] + dif[4,2,0] >= 0
 R158: x[2,0,0] - x[4,1,0] + dif[4,2,0] >= 0
 R159: - x[2,0,1] + x[4,1,1] + dif[4,2,1] >= 0
 R160: x[2,0,1] - x[4,1,1] + dif[4,2,1] >= 0
 p2: p[4,3] - 31.10768959095694 z[4,3] >= 0
 p3: p[4,3] - 79.18857055682433 z[4,3] - dcc[4,3] >= -79.18857055682433
 R163: dcc[4,3] <= 79.18857055682433
 R164: - x[3,0,0] + x[4,1,0] + dif[4,3,0] >= 0
 R165: x[3,0,0] - x[4,1,0] + dif[4,3,0] >= 0
 R166: - x[3,0,1] + x[4,1,1] + dif[4,3,1] >= 0
 R167: x[3,0,1] - x[4,1,1] + dif[4,3,1] >= 0
 p2: p[4,5] + 2.391014218161938 z[4,5] >= 0
 p3: p[4,5] - 47.24274624197177 z[4,5] - dcc[4,5] >= -47.24274624197177
 R170: dcc[4,5] <= 47.24274624197177
 R171: x[4,1,0] - x[5,0,0] + dif[4,5,0] >= 0
 R172: - x[4,1,0] + x[5,0,0] + dif[4,5,0] >= 0
 R173: x[4,1,1] - x[5,0,1] + dif[4,5,1] >= 0
 R174: - x[4,1,1] + x[5,0,1] + dif[4,5,1] >= 0
 p2: p[5,0] - 50.42356371748715 z[5,0] >= 0
 p3: p[5,0] - 93.19169320809776 z[5,0] - dcc[5,0] >= -93.19169320809776
 R177: dcc[5,0] <= 93.19169320809776
 R178: - x[0,0,0] + x[5,1,0] + dif[5,0,0] >= 0
 R179: x[0,0,0] - x[5,1,0] + dif[5,0,0] >= 0
 R180: - x[0,0,1] + x[5,1,1] + dif[5,0,1] >= 0
 R181: x[0,0,1] - x[5,1,1] + dif[5,0,1] >= 0
 p2: p[5,1] - 6.419731834588761 z[5,1] >= 0
 p3: p[5,1] - 49.00972809474508 z[5,1] - dcc[5,1] >= -49.00972809474508
 R184: dcc[5,1] <= 49.00972809474508
 R185: - x[1,0,0] + x[5,1,0] + dif[5,1,0] >= 0
 R186: x[1,0,0] - x[5,1,0] + dif[5,1,0] >= 0
 R187: - x[1,0,1] + x[5,1,1] + dif[5,1,1] >= 0
 R188: x[1,0,1] - x[5,1,1] + dif[5,1,1] >= 0
 p2: p[5,2] - 9.051262938758825 z[5,2] >= 0
 p3: p[5,2] - 55.41851552833815 z[5,2] - dcc[5,2] >= -55.41851552833815
 R191: dcc[5,2] <= 55.41851552833815
 R192: - x[2,0,0] + x[5,1,0] + dif[5,2,0] >= 0
 R193: x[2,0,0] - x[5,1,0] + dif[5,2,0] >= 0
 R194: - x[2,0,1] + x[5,1,1] + dif[5,2,1] >= 0
 R195: x[2,0,1] - x[5,1,1] + dif[5,2,1] >= 0
 p2: p[5,3] - 46.41721479342504 z[5,3] >= 0
 p3: p[5,3] - 89.53944506199682 z[5,3] - dcc[5,3] >= -89.53944506199682
 R198: dcc[5,3] <= 89.53944506199682
 R199: - x[3,0,0] + x[5,1,0] + dif[5,3,0] >= 0
 R200: x[3,0,0] - x[5,1,0] + dif[5,3,0] >= 0
 R201: - x[3,0,1] + x[5,1,1] + dif[5,3,1] >= 0
 R202: x[3,0,1] - x[5,1,1] + dif[5,3,1] >= 0
 p2: p[5,4] + 2.391014218161938 z[5,4] >= 0
 p3: p[5,4] - 47.24274624197177 z[5,4] - dcc[5,4] >= -47.24274624197177
 R205: dcc[5,4] <= 47.24274624197177
 R206: - x[4,0,0] + x[5,1,0] + dif[5,4,0] >= 0
 R207: x[4,0,0] - x[5,1,0] + dif[5,4,0] >= 0
 R208: - x[4,0,1] + x[5,1,1] + dif[5,4,1] >= 0
 R209: x[4,0,1] - x[5,1,1] + dif[5,4,1] >= 0
 R210: z[0,1] + z[0,2] + z[0,3] + z[0,4] + z[0,5] = 1
 R211: z[1,0] + z[1,2] + z[1,3] + z[1,4] + z[1,5] = 1
 R212: z[2,0] + z[2,1] + z[2,3] + z[2,4] + z[2,5] = 1
 R213: z[3,0] + z[3,1] + z[3,2] + z[3,4] + z[3,5] = 1
 R214: z[4,0] + z[4,1] + z[4,2] + z[4,3] + z[4,5] = 1
 R215: z[5,0] + z[5,1] + z[5,2] + z[5,3] + z[5,4] = 1
 R216: z[1,0] + z[2,0] + z[3,0] + z[4,0] + z[5,0] = 1
 R217: z[0,1] + z[2,1] + z[3,1] + z[4,1] + z[5,1] = 1
 R218: z[0,2] + z[1,2] + z[3,2] + z[4,2] + z[5,2] = 1
 R219: z[0,3] + z[1,3] + z[2,3] + z[4,3] + z[5,3] = 1
 R220: z[0,4] + z[1,4] + z[2,4] + z[3,4] + z[5,4] = 1
 R221: z[0,5] + z[1,5] + z[2,5] + z[3,5] + z[4,5] = 1
 rest7: z[0,1] + z[1,0] <= 1
 rest7: z[0,2] + z[2,0] <= 1
 rest7: z[0,3] + z[3,0] <= 1
 rest7: z[0,4] + z[4,0] <= 1
 rest7: z[0,5] + z[5,0] <= 1
 rest7: z[0,1] + z[1,0] <= 1
 rest7: z[1,2] + z[2,1] <= 1
 rest7: z[1,3] + z[3,1] <= 1
 rest7: z[1,4] + z[4,1] <= 1
 rest7: z[1,5] + z[5,1] <= 1
 rest7: z[0,2] + z[2,0] <= 1
 rest7: z[1,2] + z[2,1] <= 1
 rest7: z[2,3] + z[3,2] <= 1
 rest7: z[2,4] + z[4,2] <= 1
 rest7: z[2,5] + z[5,2] <= 1
 rest7: z[0,3] + z[3,0] <= 1
 rest7: z[1,3] + z[3,1] <= 1
 rest7: z[2,3] + z[3,2] <= 1
 rest7: z[3,4] + z[4,3] <= 1
 rest7: z[3,5] + z[5,3] <= 1
 rest7: z[0,4] + z[4,0] <= 1
 rest7: z[1,4] + z[4,1] <= 1
 rest7: z[2,4] + z[4,2] <= 1
 rest7: z[3,4] + z[4,3] <= 1
 rest7: z[4,5] + z[5,4] <= 1
 rest7: z[0,5] + z[5,0] <= 1
 rest7: z[1,5] + z[5,1] <= 1
 rest7: z[2,5] + z[5,2] <= 1
 rest7: z[3,5] + z[5,3] <= 1
 rest7: z[4,5] + z[5,4] <= 1
 R252: 6 z[1,2] + sc[1] - sc[2] <= 5
 R253: 6 z[1,3] + sc[1] - sc[3] <= 5
 R254: 6 z[1,4] + sc[1] - sc[4] <= 5
 R255: 6 z[1,5] + sc[1] - sc[5] <= 5
 R256: 6 z[2,1] - sc[1] + sc[2] <= 5
 R257: 6 z[2,3] + sc[2] - sc[3] <= 5
 R258: 6 z[2,4] + sc[2] - sc[4] <= 5
 R259: 6 z[2,5] + sc[2] - sc[5] <= 5
 R260: 6 z[3,1] - sc[1] + sc[3] <= 5
 R261: 6 z[3,2] - sc[2] + sc[3] <= 5
 R262: 6 z[3,4] + sc[3] - sc[4] <= 5
 R263: 6 z[3,5] + sc[3] - sc[5] <= 5
 R264: 6 z[4,1] - sc[1] + sc[4] <= 5
 R265: 6 z[4,2] - sc[2] + sc[4] <= 5
 R266: 6 z[4,3] - sc[3] + sc[4] <= 5
 R267: 6 z[4,5] + sc[4] - sc[5] <= 5
 R268: 6 z[5,1] - sc[1] + sc[5] <= 5
 R269: 6 z[5,2] - sc[2] + sc[5] <= 5
 R270: 6 z[5,3] - sc[3] + sc[5] <= 5
 R271: 6 z[5,4] - sc[4] + sc[5] <= 5
 rest10: sc[0] = 0
 rest11: sc[1] >= 1
 rest11: sc[2] >= 1
 rest11: sc[3] >= 1
 rest11: sc[4] >= 1
 rest11: sc[5] >= 1
 R278: dc[0] <= 20.43057460919156
 R279: - x[0,0,0] + x[0,1,0] + difc[0,0] >= 0
 R280: x[0,0,0] - x[0,1,0] + difc[0,0] >= 0
 R281: - x[0,0,1] + x[0,1,1] + difc[0,1] >= 0
 R282: x[0,0,1] - x[0,1,1] + difc[0,1] >= 0
 R283: dc[1] <= 20.25244137873726
 R284: - x[1,0,0] + x[1,1,0] + difc[1,0] >= 0
 R285: x[1,0,0] - x[1,1,0] + difc[1,0] >= 0
 R286: - x[1,0,1] + x[1,1,1] + difc[1,1] >= 0
 R287: x[1,0,1] - x[1,1,1] + difc[1,1] >= 0
 R288: dc[2] <= 24.02969770816027
 R289: - x[2,0,0] + x[2,1,0] + difc[2,0] >= 0
 R290: x[2,0,0] - x[2,1,0] + difc[2,0] >= 0
 R291: - x[2,0,1] + x[2,1,1] + difc[2,1] >= 0
 R292: x[2,0,1] - x[2,1,1] + difc[2,1] >= 0
 R293: dc[3] <= 20.78467538715273
 R294: - x[3,0,0] + x[3,1,0] + difc[3,0] >= 0
 R295: x[3,0,0] - x[3,1,0] + difc[3,0] >= 0
 R296: - x[3,0,1] + x[3,1,1] + difc[3,1] >= 0
 R297: x[3,0,1] - x[3,1,1] + difc[3,1] >= 0
 R298: dc[4] <= 27.29620557871466
 R299: - x[4,0,0] + x[4,1,0] + difc[4,0] >= 0
 R300: x[4,0,0] - x[4,1,0] + difc[4,0] >= 0
 R301: - x[4,0,1] + x[4,1,1] + difc[4,1] >= 0
 R302: x[4,0,1] - x[4,1,1] + difc[4,1] >= 0
 R303: dc[5] <= 22.33755488141905
 R304: - x[5,0,0] + x[5,1,0] + difc[5,0] >= 0
 R305: x[5,0,0] - x[5,1,0] + difc[5,0] >= 0
 R306: - x[5,0,1] + x[5,1,1] + difc[5,1] >= 0
 R307: x[5,0,1] - x[5,1,1] + difc[5,1] >= 0
 qc0: [ - dcc[0,1] ^2 + dif[0,1,0] ^2 + dif[0,1,1] ^2 ] <= 0
 qc1: [ - dcc[0,2] ^2 + dif[0,2,0] ^2 + dif[0,2,1] ^2 ] <= 0
 qc2: [ - dcc[0,3] ^2 + dif[0,3,0] ^2 + dif[0,3,1] ^2 ] <= 0
 qc3: [ - dcc[0,4] ^2 + dif[0,4,0] ^2 + dif[0,4,1] ^2 ] <= 0
 qc4: [ - dcc[0,5] ^2 + dif[0,5,0] ^2 + dif[0,5,1] ^2 ] <= 0
 qc5: [ - dcc[1,0] ^2 + dif[1,0,0] ^2 + dif[1,0,1] ^2 ] <= 0
 qc6: [ - dcc[1,2] ^2 + dif[1,2,0] ^2 + dif[1,2,1] ^2 ] <= 0
 qc7: [ - dcc[1,3] ^2 + dif[1,3,0] ^2 + dif[1,3,1] ^2 ] <= 0
 qc8: [ - dcc[1,4] ^2 + dif[1,4,0] ^2 + dif[1,4,1] ^2 ] <= 0
 qc9: [ - dcc[1,5] ^2 + dif[1,5,0] ^2 + dif[1,5,1] ^2 ] <= 0
 qc10: [ - dcc[2,0] ^2 + dif[2,0,0] ^2 + dif[2,0,1] ^2 ] <= 0
 qc11: [ - dcc[2,1] ^2 + dif[2,1,0] ^2 + dif[2,1,1] ^2 ] <= 0
 qc12: [ - dcc[2,3] ^2 + dif[2,3,0] ^2 + dif[2,3,1] ^2 ] <= 0
 qc13: [ - dcc[2,4] ^2 + dif[2,4,0] ^2 + dif[2,4,1] ^2 ] <= 0
 qc14: [ - dcc[2,5] ^2 + dif[2,5,0] ^2 + dif[2,5,1] ^2 ] <= 0
 qc15: [ - dcc[3,0] ^2 + dif[3,0,0] ^2 + dif[3,0,1] ^2 ] <= 0
 qc16: [ - dcc[3,1] ^2 + dif[3,1,0] ^2 + dif[3,1,1] ^2 ] <= 0
 qc17: [ - dcc[3,2] ^2 + dif[3,2,0] ^2 + dif[3,2,1] ^2 ] <= 0
 qc18: [ - dcc[3,4] ^2 + dif[3,4,0] ^2 + dif[3,4,1] ^2 ] <= 0
 qc19: [ - dcc[3,5] ^2 + dif[3,5,0] ^2 + dif[3,5,1] ^2 ] <= 0
 qc20: [ - dcc[4,0] ^2 + dif[4,0,0] ^2 + dif[4,0,1] ^2 ] <= 0
 qc21: [ - dcc[4,1] ^2 + dif[4,1,0] ^2 + dif[4,1,1] ^2 ] <= 0
 qc22: [ - dcc[4,2] ^2 + dif[4,2,0] ^2 + dif[4,2,1] ^2 ] <= 0
 qc23: [ - dcc[4,3] ^2 + dif[4,3,0] ^2 + dif[4,3,1] ^2 ] <= 0
 qc24: [ - dcc[4,5] ^2 + dif[4,5,0] ^2 + dif[4,5,1] ^2 ] <= 0
 qc25: [ - dcc[5,0] ^2 + dif[5,0,0] ^2 + dif[5,0,1] ^2 ] <= 0
 qc26: [ - dcc[5,1] ^2 + dif[5,1,0] ^2 + dif[5,1,1] ^2 ] <= 0
 qc27: [ - dcc[5,2] ^2 + dif[5,2,0] ^2 + dif[5,2,1] ^2 ] <= 0
 qc28: [ - dcc[5,3] ^2 + dif[5,3,0] ^2 + dif[5,3,1] ^2 ] <= 0
 qc29: [ - dcc[5,4] ^2 + dif[5,4,0] ^2 + dif[5,4,1] ^2 ] <= 0
 inC1: - 66.80511577353847 x[0,0,0] - 160.1736904452731 x[0,0,1] + [
   x[0,0,0] ^2 + x[0,0,1] ^2 ] <= -7425.281556378075
 inC1: - 66.80511577353847 x[0,1,0] - 160.1736904452731 x[0,1,1] + [
   x[0,1,0] ^2 + x[0,1,1] ^2 ] <= -7425.281556378075
 qc32: [ - dc[0] ^2 + difc[0,0] ^2 + difc[0,1] ^2 ] <= 0
 inC1: - 154.4529623541029 x[1,0,0] - 97.73333646923938 x[1,0,1] + [
   x[1,0,0] ^2 + x[1,0,1] ^2 ] <= -8249.340313892069
 inC1: - 154.4529623541029 x[1,1,0] - 97.73333646923938 x[1,1,1] + [
   x[1,1,0] ^2 + x[1,1,1] ^2 ] <= -8249.340313892069
 qc35: [ - dc[1] ^2 + difc[1,0] ^2 + difc[1,1] ^2 ] <= 0
 inC1: - 169.6270812831075 x[2,0,0] - 103.7038157666238 x[2,0,1] + [
   x[2,0,0] ^2 + x[2,0,1] ^2 ] <= -9737.600434309563
 inC1: - 169.6270812831075 x[2,1,0] - 103.7038157666238 x[2,1,1] + [
   x[2,1,0] ^2 + x[2,1,1] ^2 ] <= -9737.600434309563
 qc38: [ - dc[2] ^2 + difc[2,0] ^2 + difc[2,1] ^2 ] <= 0
 inC1: - 52.54497807480716 x[3,0,0] - 138.1561500370246 x[3,0,1] + [
   x[3,0,0] ^2 + x[3,0,1] ^2 ] <= -5354.023445746375
 inC1: - 52.54497807480716 x[3,1,0] - 138.1561500370246 x[3,1,1] + [
   x[3,1,0] ^2 + x[3,1,1] ^2 ] <= -5354.023445746375
 qc41: [ - dc[3] ^2 + difc[3,0] ^2 + difc[3,1] ^2 ] <= 0
 inC1: - 104.392335002241 x[4,0,0] - 40.80566682185858 x[4,0,1] + [
   x[4,0,0] ^2 + x[4,0,1] ^2 ] <= -2954.444803250299
 inC1: - 104.392335002241 x[4,1,0] - 40.80566682185858 x[4,1,1] + [
   x[4,1,0] ^2 + x[4,1,1] ^2 ] <= -2954.444803250299
 qc44: [ - dc[4] ^2 + difc[4,0] ^2 + difc[4,1] ^2 ] <= 0
 inC1: - 149.2100415733915 x[5,0,0] - 42.55239039412383 x[5,0,1] + [
   x[5,0,0] ^2 + x[5,0,1] ^2 ] <= -5893.844019126681
 inC1: - 149.2100415733915 x[5,1,0] - 42.55239039412383 x[5,1,1] + [
   x[5,1,0] ^2 + x[5,1,1] ^2 ] <= -5893.844019126681
 qc47: [ - dc[5] ^2 + difc[5,0] ^2 + difc[5,1] ^2 ] <= 0
Bounds
 sc[0] <= 5
 sc[1] <= 5
 sc[2] <= 5
 sc[3] <= 5
 sc[4] <= 5
 sc[5] <= 5
Binaries
 z[0,1] z[0,2] z[0,3] z[0,4] z[0,5] z[1,0] z[1,2] z[1,3] z[1,4] z[1,5]
 z[2,0] z[2,1] z[2,3] z[2,4] z[2,5] z[3,0] z[3,1] z[3,2] z[3,4] z[3,5]
 z[4,0] z[4,1] z[4,2] z[4,3] z[4,5] z[5,0] z[5,1] z[5,2] z[5,3] z[5,4]
End
